p cnf 18 37
a 11 0
e 1 2 3 4 5 6 7 8 9 10 12 13 14 15 16 17 18 0
-1 2 -3 0
1 -2 -3 0
-1 -2 3 0
1 2 3 0
-5 -3 0
-5 -4 0
3 4 5 0
6 -5 0
6 1 0
5 -1 -6 0
-8 7 0
-8 7 0
-7 8 0
9 6 0
9 8 0
-6 -8 -9 0
10 -11 -12 0
-10 11 -12 0
10 11 12 0
-10 -11 12 0
12 -13 -14 0
-12 13 -14 0
12 13 14 0
-12 -13 14 0
15 -9 0
15 14 0
9 -14 -15 0
-17 -16 0
-17 -5 0
16 5 17 0
18 15 0
18 -17 0
-15 17 -18 0
-11 17 3 -5 6 -15 0
3 4 15 1 0
-4 11 -6 3 12 7 0
18 0
